NAME: PointSet_Angle_15_1
TYPE: TSP
COMMENT: Points chosen discrete uniformly at random out of ${0, \ldots, 500}^2$.
DIMENSION: 15
EDGE_WEIGHT_TYPE: EUC_2D
NODE_COORD_SECTION
1 266 49
2 192 191
3 449 128
4 107 185
5 40 236
6 366 44
7 28 7
8 244 52
9 396 459
10 312 133
11 159 495
12 210 307
13 186 200
14 210 466
15 108 151
EOF
